CPXPARAM_MIP_Cuts_FlowCovers#P16#0#2.751967#0.658728
CPXPARAM_MIP_Cuts_FlowCovers#P16#2#4.177698#1.000000
CPXPARAM_MIP_Cuts_MIRCut#P20#1#2.858914#0.684328
CPXPARAM_MIP_Cuts_MIRCut#P20#2#2.916190#0.698038
CPXPARAM_Preprocessing_Presolve#P57#1#3.314902#0.793476
